circuit_heights=[3, 4, 5, 6, 7, 8, 9, 10, 11, 16, 17, 21, 23, 3, 4, 5, 8, 13, 23, 6, 9, 13];
circuit_widths=[3, 3, 3, 3, 3, 3, 3, 3, 3, 3, 3, 3, 3, 4, 4, 4, 4, 4, 4, 5, 5, 5];
max_height=224;
min_height=28;
n_circuits=22;
plate_width=28;
